(set-logic BV) (define-fun origCir ((n249 Bool) (n325 Bool) (n254 Bool) (n207 Bool) (i49 Bool)) Bool (xor (and (xor n325 (not (and n254 n207))) n249) i49)) (synth-fun skel ((n249 Bool) (n325 Bool) (n254 Bool) (n207 Bool) (i49 Bool)) Bool) (declare-var n249 Bool) (declare-var n325 Bool) (declare-var n254 Bool) (declare-var n207 Bool) (declare-var i49 Bool) (constraint (= (origCir n249 n325 n254 n207 i49) (skel n249 n325 n254 n207 i49))) (check-synth)
